(declare-const term_to_project_onto0 Real)
(declare-const tmp___1 Int)
(declare-const term_to_project_onto1 Real)
(declare-const term_to_project_onto Real)
(assert (exists
         ((|tmp___1'?1| Int) (|y'?2| Int) (|x'?3| Int) (phi_y?4 Int)
            (phi_x?5 Int) (phi_x?6 Int) (phi_x?7 Int) (havoc?8 Int) (x?9 Int)
            (y?10 Int))
         (and (or (<= (+ havoc?8 1) 0) (<= (+ (- havoc?8) 1) 0))
                (or (and (= x?9 0)
                           (or (and (<= y?10 0) (= (+ (- phi_x?7) x?9 -1) 0))
                                 (and (<= (+ (- y?10) 1) 0)
                                        (= (+ (- phi_x?7) x?9 1) 0)))
                           (= (+ (- phi_x?6) phi_x?7) 0))
                      (and (or (<= (+ x?9 1) 0) (<= (+ (- x?9) 1) 0))
                             (= (+ (- phi_x?6) x?9) 0)))
                (or (and (<= phi_x?6 0) (= (+ (- phi_x?5) phi_x?6 -1) 0)
                           (= (+ (- phi_y?4) y?10) 0))
                      (and (<= (+ (- phi_x?6) 1) 0)
                             (= (+ (- phi_x?5) phi_x?6) 0)
                             (= (+ (- phi_y?4) y?10 1) 0)))
                (= (+ |tmp___1'?1| (- havoc?8)) 0)
                (= (+ |y'?2| (- phi_y?4)) 0) (= (+ |x'?3| (- phi_x?5)) 0)
                (= term_to_project_onto1 (+ |x'?3| (- x?9)))
                (= term_to_project_onto0 (+ |y'?2| (- y?10)))
                (= term_to_project_onto (+ |tmp___1'?1| (- tmp___1))))))
(check-sat)
